n_machines = 3;
n_resources = 6;
n_jobs = 39;
horizon = 19202;
LB = 6400;
n_jobs_per_resource = [7, 2, 5, 8, 9, 8];
duration = [663, 928, 827, 468, 139, 129, 653, 937, 891, 535, 679, 640, 441, 266, 364, 504, 275, 256, 166, 421, 978, 444, 860, 33, 587, 393, 415, 982, 104, 280, 7, 34, 234, 185, 982, 564, 996, 709, 233]